(set-logic HORN)
(declare-fun inv ((_ BitVec 64) ) Bool)
(assert (forall ((i (_ BitVec 64))) 
       (=> ( = i (_ bv0 64) ) (inv i))))
(assert (forall ((i (_ BitVec 64)) (i! (_ BitVec 64))) 
       (=> (and (inv i) ( and ( bvslt i (_ bv1000000 64) ) ( = i! ( bvadd i (_ bv2 64) ) ) )) (inv i!))))
(assert (forall ((i (_ BitVec 64))) 
       (=> (inv i) ( or ( bvslt i (_ bv1000000 64) ) ( = i (_ bv1000000 64) ) ))))
(check-sat)
